DIMENSION: 12
EDGE_WEIGHT_TYPE: EXPLICIT
EDGE_WEIGHT_FORMAT: FULL_MATRIX
EDGE_WEIGHT_SECTION:
32767 39 32767 32767 32767 32767 32767 26 32767 32767 74 32767 
39 32767 49 32767 2 65 32767 32767 32767 23 32767 31 
32767 49 32767 32767 11 32767 32767 8 32767 32767 32767 32767 
32767 32767 32767 32767 32767 41 32767 36 32 32767 64 32 
32767 2 11 32767 32767 32767 32767 32767 32767 32767 78 4 
32767 65 32767 41 32767 32767 17 88 9 32767 32767 32767 
32767 32767 32767 32767 32767 17 32767 32767 8 87 52 10 
26 32767 8 36 32767 88 32767 32767 32767 32767 32767 32767 
32767 32767 32767 32 32767 9 8 32767 32767 32767 32767 32767 
32767 23 32767 32767 32767 32767 87 32767 32767 32767 32767 91 
74 32767 32767 64 78 32767 52 32767 32767 32767 32767 61 
32767 31 32767 32 4 32767 10 32767 32767 91 61 32767 
EOF